SAT/6368886_23.param
$ LBS instance with n = 23, seed = 6368886
letting cards be [1,3,21,47,10,7,39,46,27,12,37,0,29,28,51,14,50,34,48,8,25,20,22]
